15 41
25
2 11 6 2
3 2 8 20
7 10 8 22
4 8 4 13
5 9 1 32
2 7 8 2
1 4 10 10
1 6 0 35
5 4 10 1
3 8 12 32
3 1 12 0
5 5 10 5
1 3 0 32
4 12 11 10
2 6 0 0
4 2 6 0
4 11 4 21
2 10 4 3
2 3 2 3
2 11 8 9
4 3 2 0
4 26 0 6
4 8 6 33
2 3 10 38
2 6 10 32

301
True